0 2
0 8
0 29
1 18
1 24
2 8
2 29
3 26
3 30
4 5
5 24
5 26
6 21
6 23
6 25
6 26
7 28
7 30
8 12
8 19
8 25
9 11
9 18
9 20
10 25
10 27
10 31
11 14
11 26
11 30
13 18
13 24
14 25
14 27
15 16
16 23
16 31
17 18
17 23
18 23
18 27
21 22
21 24
21 28
22 29
25 30
27 30
